files/upTests/matrixes7-1/0001.eprime.solution
language ESSENCE' 1.0
$ minion Nodes: 3
$ minion TotalTime: 0.001213
$ Savile Row TotalTime: 0.367
letting x_tuple3 be [9, 9]
letting x_tuple2 be [6, 7]
letting x_tuple1_ExplicitVarSize_tuple1 be [[0, 1], 
[0, 1]]
letting x_tuple1_ExplicitVarSize_tuple2 be [[3, 3], 
[3, 5]]
